100 500 10 200 10 100
54 25
87 79
88 143
39 126
53 166
86 183
43 185
29 126
99 27
76 17
43 199
69 156
54 44
47 145
54 110
93 23
43 28
53 53
54 52
37 10
66 58
93 122
34 37
41 80
38 18
89 81
76 77
76 146
56 58
70 22
96 84
77 127
58 162
75 106
28 138
99 43
78 112
62 50
83 68
51 59
25 51
45 106
12 156
74 72
86 153
75 16
21 154
36 173
88 103
71 163
30 198
69 48
77 25
26 113
40 31
32 173
76 92
100 34
41 163
52 118
32 24
62 164
85 78
66 126
52 15
94 33
76 127
87 155
45 172
64 26
86 29
84 131
17 132
55 25
72 72
28 199
77 78
53 97
31 99
86 139
26 145
62 150
94 76
98 14
13 183
67 106
64 84
66 180
12 12
36 99
16 171
84 195
88 81
60 15
25 149
98 117
77 149
87 177
60 13
62 107
